NAME : random145.900.tour
COMMENT : Length = 900
COMMENT : Found by LKH [Keld Helsgaun] Mon Dec 30 21:11:13 2024
TYPE : TOUR
DIMENSION : 145
TOUR_SECTION
1
81
7
106
38
126
76
28
120
58
16
128
104
12
137
132
56
59
98
90
143
49
14
57
124
118
89
103
8
52
117
102
60
133
11
55
44
29
25
87
77
75
84
24
136
45
131
145
70
93
91
112
6
69
138
119
65
61
22
32
144
3
110
36
82
30
123
21
31
74
129
20
10
46
33
95
5
79
114
134
27
64
115
109
43
9
111
86
34
53
4
85
94
71
113
142
125
41
108
107
48
50
100
68
130
78
17
141
73
18
121
63
92
23
35
83
51
2
66
47
80
101
39
37
26
54
62
116
88
99
105
19
67
15
40
140
72
96
139
42
97
13
127
135
122
-1
EOF
